SDVRP instances/custom_instances/p04_27_splitx10_0.vrp
NAME:p04_27_splitx10_
BEST_KNOWN: 0
COMMENT: 0
DIMENSION: 708
CAPACITY: 2000
EDGE_WEIGHT_FORMAT: FUNCTION
EDGE_WEIGHT_TYPE: EXACT_2D
NODE_COORD_SECTION
1 0.00000 0.00000
2 -37 42
3 -37 42
4 -37 42
5 -37 42
6 -37 42
7 -37 42
8 -37 42
9 -12 -49
10 -12 -49
11 -12 -49
12 -12 -49
13 -16 40
14 -16 40
15 -16 40
16 -16 40
17 48 -29
18 48 -29
19 48 -29
20 48 -29
21 -17 23
22 -17 23
23 -16 -34
24 -15 13
25 -15 13
26 -15 13
27 -15 7
28 -15 7
29 -15 7
30 -15 7
31 -15 7
32 2 30
33 2 30
34 2 30
35 2 30
36 2 30
37 -15 46
38 -15 46
39 -35 30
40 -35 30
41 -35 30
42 -35 30
43 -35 30
44 -35 30
45 -35 30
46 -37 -34
47 -37 -34
48 -37 -34
49 -37 -34
50 47 -24
51 47 -24
52 47 -24
53 -40 13
54 -40 13
55 -40 13
56 -40 13
57 -40 13
58 27 18
59 27 18
60 18 7
61 18 7
62 18 7
63 18 7
64 18 7
65 18 7
66 30 16
67 30 16
68 30 16
69 30 16
70 30 16
71 4 -28
72 4 -28
73 4 -28
74 4 -28
75 4 -28
76 4 -28
77 29 35
78 29 35
79 29 35
80 29 35
81 29 35
82 47 15
83 47 15
84 47 15
85 -27 -6
86 -27 -6
87 -27 -6
88 -27 -6
89 -27 -6
90 -27 -6
91 -23 26
92 -23 26
93 -23 26
94 -23 26
95 -23 26
96 -23 26
97 -6 15
98 -6 15
99 -46 10
100 -46 10
101 -46 10
102 -46 10
103 3 -35
104 3 -35
105 3 -35
106 3 -35
107 3 -35
108 3 -35
109 3 -35
110 -31 -35
111 -31 -35
112 -31 -35
113 -31 -35
114 -31 -35
115 -31 -35
116 -43 22
117 -43 22
118 -43 22
119 -43 22
120 -43 22
121 27 49
122 27 49
123 27 49
124 27 49
125 27 49
126 27 49
127 32 -42
128 32 -42
129 32 -42
130 32 -42
131 0 -16
132 0 -16
133 0 -16
134 0 -16
135 0 -16
136 0 -16
137 5 44
138 5 44
139 5 44
140 5 44
141 5 44
142 -43 -48
143 -43 -48
144 -43 -48
145 -43 -48
146 -43 -48
147 -10 9
148 -10 9
149 -10 9
150 -10 9
151 -10 9
152 -10 9
153 -10 9
154 19 40
155 19 40
156 19 40
157 19 40
158 19 40
159 19 40
160 19 40
161 19 40
162 45 -14
163 45 -14
164 45 -14
165 45 -14
166 45 -14
167 -13 3
168 23 -22
169 23 -22
170 23 -22
171 23 -22
172 23 -22
173 23 -22
174 -7 31
175 -28 -50
176 -28 -50
177 -28 -50
178 -28 -50
179 -28 -50
180 -28 -50
181 -28 -50
182 39 -27
183 39 -27
184 39 -27
185 48 -19
186 48 -19
187 48 -19
188 48 -19
189 48 -19
190 -8 -11
191 -8 -11
192 -33 -16
193 -33 -16
194 -33 -16
195 -33 -16
196 -33 -16
197 12 -46
198 12 -46
199 12 -46
200 12 -46
201 12 -46
202 48 25
203 48 25
204 48 25
205 -33 -17
206 -33 -17
207 -33 -17
208 -33 -17
209 46 -46
210 46 -46
211 46 -46
212 -9 -8
213 -9 -8
214 -9 -8
215 -9 -8
216 -40 1
217 -40 1
218 -40 1
219 -40 1
220 -40 1
221 -40 1
222 -40 1
223 28 -23
224 -32 -43
225 -32 -43
226 -32 -43
227 -32 -43
228 -18 -12
229 -18 -12
230 -18 -12
231 26 27
232 26 27
233 26 27
234 26 27
235 26 27
236 26 27
237 49 -30
238 49 -30
239 49 -30
240 49 -30
241 49 -30
242 49 -30
243 -12 -25
244 -12 -25
245 -12 -25
246 -12 -25
247 -12 -25
248 -2 3
249 -2 3
250 -2 3
251 -2 3
252 -46 0
253 -46 0
254 -46 0
255 -46 0
256 8 -38
257 8 -38
258 8 -38
259 8 -38
260 8 -38
261 8 -38
262 23 7
263 23 7
264 23 7
265 23 7
266 48 -24
267 48 -24
268 48 -24
269 48 -24
270 -33 -31
271 -33 -31
272 -33 -31
273 -33 -31
274 -33 -31
275 -33 -31
276 37 16
277 37 16
278 37 16
279 37 16
280 -19 34
281 -19 34
282 -19 34
283 -19 34
284 -19 34
285 -19 34
286 -49 39
287 -49 39
288 -49 39
289 -5 -23
290 -5 -23
291 -5 -23
292 -5 -23
293 41 -11
294 41 -11
295 41 -11
296 41 -11
297 41 -11
298 41 -11
299 19 -34
300 19 -34
301 19 -34
302 19 -34
303 19 -34
304 19 -34
305 19 -34
306 19 -34
307 -18 -24
308 -18 -24
309 -18 -24
310 38 -25
311 38 -25
312 38 -25
313 38 -25
314 38 -25
315 38 -25
316 38 -25
317 8 -46
318 8 -46
319 8 -46
320 8 -46
321 8 -46
322 8 -46
323 -23 -43
324 -23 -43
325 -23 -43
326 -23 -43
327 -23 -43
328 -23 -43
329 -23 -43
330 -40 -10
331 -40 -10
332 -40 -10
333 -40 -10
334 -40 -10
335 -13 -48
336 -13 -48
337 -13 -48
338 -13 -48
339 -13 -48
340 -13 -48
341 -13 -48
342 41 -28
343 41 -28
344 41 -28
345 41 -28
346 43 15
347 43 15
348 43 15
349 43 15
350 43 15
351 43 15
352 43 15
353 -43 9
354 -43 9
355 -43 9
356 -43 9
357 -43 9
358 -43 9
359 -5 -46
360 -5 -46
361 -5 -46
362 -5 -46
363 30 -11
364 30 -11
365 30 -11
366 30 -11
367 23 -39
368 23 -39
369 23 -39
370 23 -39
371 23 -39
372 -31 -40
373 -31 -40
374 -31 -40
375 -31 -40
376 -31 -40
377 -5 17
378 -5 17
379 -5 17
380 -5 17
381 -5 17
382 -5 17
383 -5 17
384 -5 17
385 -48 34
386 -48 34
387 -48 34
388 -48 34
389 -48 34
390 -43 -50
391 -43 -50
392 -43 -50
393 -43 -50
394 39 47
395 39 47
396 39 47
397 -39 36
398 -39 36
399 -39 36
400 -39 36
401 -39 36
402 -39 36
403 -39 36
404 -14 0
405 -14 0
406 -14 0
407 -14 0
408 14 36
409 14 36
410 14 36
411 14 36
412 -2 -33
413 -2 -33
414 -2 -33
415 -2 -33
416 50 29
417 50 29
418 50 29
419 50 29
420 -25 23
421 -25 23
422 -25 23
423 -25 23
424 -25 23
425 -25 23
426 11 7
427 11 7
428 11 7
429 11 7
430 11 7
431 12 -25
432 12 -25
433 12 -25
434 12 -25
435 45 -41
436 45 -41
437 45 -41
438 14 25
439 14 25
440 14 25
441 14 25
442 14 25
443 14 25
444 14 25
445 -6 9
446 -6 9
447 -6 9
448 -6 9
449 -4 3
450 -4 3
451 -4 3
452 48 -9
453 48 -9
454 48 -9
455 48 -9
456 48 -9
457 -14 -47
458 -14 -47
459 -14 -47
460 -14 -47
461 -14 -47
462 -35 12
463 -35 12
464 -35 12
465 -35 12
466 -35 -23
467 -35 -23
468 -35 -23
469 -35 -23
470 -35 -23
471 -35 -23
472 17 -45
473 17 -45
474 17 -45
475 17 -45
476 43 -43
477 43 -43
478 43 -43
479 -25 -41
480 -25 -41
481 -25 -41
482 -25 -41
483 14 -11
484 14 -11
485 14 -11
486 14 -11
487 14 -11
488 14 -11
489 14 -11
490 45 10
491 45 10
492 45 10
493 48 -40
494 48 -40
495 48 -40
496 48 -40
497 48 -40
498 -1 -2
499 -1 -2
500 -1 -2
501 -1 -2
502 -1 -2
503 -1 -2
504 -17 -17
505 -17 -17
506 -17 -17
507 -17 -17
508 -17 -17
509 -17 -17
510 -21 30
511 -21 30
512 -21 30
513 -46 31
514 -46 31
515 -46 31
516 -46 31
517 -46 31
518 -46 31
519 -9 0
520 -9 0
521 17 -38
522 17 -38
523 17 -38
524 17 -38
525 17 -38
526 17 -38
527 -6 -45
528 -6 -45
529 -6 -45
530 4 2
531 4 2
532 4 2
533 4 2
534 4 2
535 25 4
536 25 4
537 25 4
538 25 4
539 25 4
540 18 37
541 18 37
542 18 37
543 18 37
544 18 37
545 16 1
546 16 1
547 16 1
548 -30 28
549 -30 28
550 -30 28
551 -30 28
552 -30 28
553 -30 28
554 5 -23
555 5 -23
556 5 -23
557 43 -39
558 43 -39
559 43 -39
560 -36 -5
561 -36 -5
562 -36 -5
563 -36 -5
564 -36 -5
565 -36 -5
566 -36 -5
567 -21 -8
568 -21 -8
569 -21 -8
570 -21 -8
571 -21 -8
572 -42 -46
573 -42 -46
574 -42 -46
575 8 32
576 8 32
577 8 32
578 8 32
579 8 32
580 8 32
581 8 32
582 8 32
583 4 12
584 4 12
585 4 12
586 4 12
587 -43 -25
588 -43 -25
589 -43 -25
590 -43 -25
591 -43 -25
592 -43 -25
593 -43 -25
594 45 11
595 45 11
596 45 11
597 45 11
598 45 11
599 45 11
600 -25 -9
601 -25 -9
602 -25 -9
603 -25 -9
604 -25 -9
605 6 24
606 6 24
607 6 24
608 6 24
609 31 4
610 31 4
611 31 4
612 31 4
613 31 4
614 31 4
615 -16 -42
616 -16 -42
617 -16 -42
618 -16 -42
619 -16 -42
620 10 45
621 10 45
622 10 45
623 10 45
624 -47 19
625 -47 19
626 -47 19
627 5 3
628 5 3
629 5 3
630 5 3
631 5 3
632 5 3
633 -38 -34
634 -38 -34
635 -38 -34
636 28 -4
637 28 -4
638 28 -4
639 28 -4
640 28 -4
641 -42 45
642 -42 45
643 -42 45
644 -42 45
645 -30 30
646 -30 30
647 -30 30
648 -30 30
649 -30 30
650 -30 30
651 -49 -12
652 -49 -12
653 -49 -12
654 -49 -12
655 -49 -12
656 -49 -12
657 -41 24
658 -41 24
659 -41 24
660 -41 24
661 -41 24
662 -41 24
663 -39 -45
664 -39 -45
665 -39 -45
666 -39 -45
667 -39 -45
668 -39 -45
669 -39 -45
670 -39 -45
671 -8 41
672 -8 41
673 -8 41
674 -8 41
675 -8 41
676 -8 41
677 -41 -41
678 -41 -41
679 -41 -41
680 -41 -41
681 -41 -41
682 -29 22
683 -29 22
684 -29 22
685 -29 22
686 -29 22
687 29 1
688 29 1
689 -33 -3
690 -33 -3
691 -33 -3
692 -33 -3
693 50 -42
694 50 -42
695 50 -42
696 -1 45
697 -1 45
698 -1 45
699 -1 45
700 -46 26
701 -46 26
702 -46 26
703 -46 26
704 -49 -11
705 -49 -11
706 -49 -11
707 -49 -11
708 -49 -11
DEMAND_SECTION
1 0
2 400
3 100
4 20
5 20
6 20
7 20
8 10
9 400
10 200
11 20
12 10
13 400
14 100
15 20
16 10
17 400
18 200
19 20
20 10
21 200
22 100
23 400
24 400
25 100
26 20
27 400
28 200
29 20
30 20
31 10
32 400
33 200
34 100
35 20
36 20
37 400
38 400
39 400
40 200
41 100
42 20
43 20
44 20
45 10
46 400
47 400
48 100
49 10
50 400
51 400
52 10
53 400
54 100
55 20
56 20
57 20
58 400
59 200
60 400
61 400
62 20
63 20
64 20
65 10
66 400
67 400
68 20
69 20
70 10
71 400
72 400
73 20
74 20
75 20
76 10
77 400
78 20
79 20
80 20
81 10
82 400
83 100
84 10
85 400
86 200
87 20
88 20
89 20
90 10
91 400
92 200
93 100
94 20
95 20
96 20
97 400
98 200
99 400
100 400
101 100
102 10
103 400
104 400
105 100
106 20
107 20
108 20
109 10
110 200
111 100
112 20
113 20
114 20
115 10
116 400
117 400
118 100
119 20
120 10
121 200
122 100
123 20
124 20
125 20
126 20
127 200
128 20
129 20
130 20
131 400
132 200
133 20
134 20
135 20
136 20
137 400
138 20
139 20
140 20
141 20
142 200
143 20
144 20
145 20
146 10
147 200
148 100
149 20
150 20
151 20
152 20
153 10
154 400
155 400
156 100
157 20
158 20
159 20
160 20
161 10
162 400
163 200
164 100
165 20
166 20
167 400
168 200
169 20
170 20
171 20
172 20
173 10
174 400
175 200
176 100
177 20
178 20
179 20
180 20
181 10
182 400
183 20
184 10
185 400
186 400
187 100
188 20
189 10
190 400
191 20
192 200
193 20
194 20
195 20
196 10
197 200
198 100
199 20
200 20
201 20
202 400
203 100
204 10
205 400
206 100
207 20
208 10
209 400
210 400
211 200
212 200
213 100
214 20
215 20
216 400
217 100
218 20
219 20
220 20
221 20
222 10
223 400
224 400
225 100
226 20
227 10
228 400
229 400
230 100
231 400
232 400
233 20
234 20
235 20
236 20
237 200
238 100
239 20
240 20
241 20
242 20
243 200
244 20
245 20
246 20
247 10
248 400
249 20
250 20
251 10
252 400
253 400
254 100
255 20
256 400
257 400
258 100
259 20
260 20
261 10
262 400
263 200
264 20
265 10
266 400
267 400
268 100
269 20
270 200
271 100
272 20
273 20
274 20
275 10
276 200
277 100
278 20
279 10
280 400
281 400
282 100
283 20
284 20
285 20
286 400
287 20
288 10
289 400
290 100
291 20
292 20
293 200
294 100
295 20
296 20
297 20
298 10
299 400
300 200
301 100
302 20
303 20
304 20
305 20
306 10
307 400
308 200
309 10
310 400
311 400
312 20
313 20
314 20
315 20
316 10
317 200
318 100
319 20
320 20
321 20
322 20
323 200
324 100
325 20
326 20
327 20
328 20
329 10
330 200
331 20
332 20
333 20
334 10
335 400
336 400
337 20
338 20
339 20
340 20
341 10
342 400
343 20
344 20
345 10
346 400
347 400
348 100
349 20
350 20
351 20
352 10
353 400
354 400
355 100
356 20
357 20
358 10
359 400
360 20
361 20
362 20
363 400
364 200
365 20
366 10
367 400
368 200
369 100
370 20
371 10
372 400
373 20
374 20
375 20
376 20
377 400
378 200
379 100
380 20
381 20
382 20
383 20
384 10
385 400
386 400
387 100
388 20
389 20
390 400
391 400
392 100
393 20
394 400
395 100
396 20
397 400
398 200
399 100
400 20
401 20
402 20
403 10
404 200
405 20
406 20
407 10
408 400
409 200
410 100
411 20
412 200
413 100
414 20
415 20
416 400
417 200
418 100
419 10
420 400
421 200
422 100
423 20
424 20
425 20
426 400
427 200
428 100
429 20
430 10
431 400
432 400
433 20
434 20
435 400
436 20
437 20
438 400
439 200
440 20
441 20
442 20
443 20
444 10
445 400
446 400
447 20
448 20
449 400
450 100
451 10
452 200
453 100
454 20
455 20
456 20
457 400
458 20
459 20
460 20
461 20
462 400
463 20
464 20
465 10
466 400
467 400
468 100
469 20
470 20
471 20
472 400
473 200
474 100
475 10
476 400
477 400
478 10
479 400
480 200
481 20
482 10
483 200
484 100
485 20
486 20
487 20
488 20
489 10
490 400
491 20
492 10
493 400
494 200
495 20
496 20
497 20
498 400
499 400
500 20
501 20
502 20
503 10
504 400
505 200
506 20
507 20
508 20
509 10
510 400
511 200
512 20
513 400
514 400
515 20
516 20
517 20
518 20
519 400
520 400
521 400
522 200
523 20
524 20
525 20
526 20
527 400
528 200
529 10
530 400
531 200
532 20
533 20
534 10
535 200
536 100
537 20
538 20
539 10
540 200
541 20
542 20
543 20
544 20
545 400
546 100
547 10
548 200
549 100
550 20
551 20
552 20
553 20
554 400
555 400
556 10
557 400
558 400
559 10
560 400
561 400
562 100
563 20
564 20
565 20
566 20
567 400
568 20
569 20
570 20
571 20
572 400
573 20
574 20
575 400
576 200
577 100
578 20
579 20
580 20
581 20
582 10
583 400
584 400
585 20
586 10
587 400
588 100
589 20
590 20
591 20
592 20
593 10
594 400
595 400
596 20
597 20
598 20
599 20
600 400
601 100
602 20
603 20
604 10
605 400
606 200
607 20
608 10
609 400
610 100
611 20
612 20
613 20
614 10
615 200
616 20
617 20
618 20
619 10
620 400
621 400
622 100
623 10
624 400
625 100
626 20
627 400
628 400
629 20
630 20
631 20
632 20
633 200
634 100
635 10
636 400
637 200
638 100
639 20
640 10
641 400
642 200
643 100
644 10
645 400
646 400
647 20
648 20
649 20
650 10
651 400
652 400
653 20
654 20
655 20
656 20
657 400
658 100
659 20
660 20
661 20
662 20
663 400
664 200
665 100
666 20
667 20
668 20
669 20
670 10
671 200
672 100
673 20
674 20
675 20
676 20
677 400
678 200
679 20
680 20
681 10
682 400
683 400
684 100
685 20
686 20
687 400
688 100
689 400
690 20
691 20
692 10
693 400
694 100
695 10
696 200
697 20
698 20
699 20
700 200
701 100
702 20
703 10
704 400
705 400
706 20
707 20
708 20
DEPOT_SECTION
1
-1
EOF