SDVRP instances/custom_instances/p04_27_splitx10_0.sol
707 -10 11 9 8 339 337 336 334 340 335 338 460 457 456 458 459 -13 15 14 12 37 36 670 672 675 673 173 -20 21 511 510 509 281 284 282 279 280 283 -22 526 527 528 361 360 358 359 413 411 414 412 291 -24 23 25 423 421 420 422 419 424 92 95 90 91 -34 35 31 33 32 579 578 580 581 577 575 574 576 606 604 607 -42 39 43 40 44 38 41 402 399 401 396 400 397 398 550 549 548 552 551 547 -59 57 58 232 234 233 235 231 230 441 443 440 -61 64 62 60 63 261 264 263 262 535 534 546 545 544 -68 65 66 69 67 276 277 348 346 351 350 345 347 349 -72 75 73 316 318 321 319 317 320 199 197 198 200 196 472 473 471 474 523 522 520 524 525 432 -80 76 79 77 78 395 394 393 121 122 125 124 123 120 153 159 160 539 -84 86 87 85 89 88 564 559 565 560 690 689 688 691 -93 94 6 1 4 7 2 5 3 641 640 643 642 285 286 287 388 386 517 516 515 658 659 -98 99 100 101 254 252 253 251 563 561 562 -112 114 113 110 111 109 48 46 47 45 633 632 634 272 273 270 274 269 271 214 213 -133 130 135 132 131 74 70 71 290 289 288 -134 107 106 104 108 105 103 102 257 256 255 260 258 259 -151 150 152 149 148 147 644 646 649 648 647 645 683 684 685 682 681 -167 182 183 181 342 343 341 344 313 310 309 311 314 485 -168 170 172 171 169 312 315 49 51 50 266 267 265 268 186 -189 190 507 504 503 306 307 308 242 243 245 246 244 -210 209 208 693 694 692 434 436 435 -211 212 229 228 227 518 519 -217 218 220 221 219 215 216 329 205 204 195 192 191 194 193 601 599 602 -222 367 370 369 366 521 302 298 299 305 303 304 300 -249 247 448 450 449 498 500 502 499 497 501 -250 248 446 444 447 97 96 378 382 380 379 383 381 376 377 -278 275 83 81 82 202 203 201 418 417 415 416 429 428 -292 297 293 295 19 18 17 16 240 241 237 239 238 236 493 492 494 495 496 -294 296 161 162 164 163 165 187 188 185 184 451 453 452 454 455 -301 368 126 127 129 128 476 475 477 557 556 558 -322 326 328 324 327 325 323 480 478 479 481 225 223 372 375 371 373 374 -353 356 352 355 357 354 52 53 55 56 54 464 462 463 461 -365 364 362 363 638 639 637 636 635 687 686 -405 403 404 406 166 29 27 28 30 26 146 445 -410 409 407 408 158 154 156 155 157 541 542 540 543 442 438 437 439 -427 426 425 585 583 584 582 -469 466 470 467 465 468 588 586 587 591 592 589 590 206 207 567 566 -486 483 488 484 487 482 430 433 431 555 554 553 -505 508 506 680 677 676 679 678 662 669 666 226 224 180 179 175 176 178 177 174 618 616 617 615 614 -512 514 513 384 385 387 699 700 702 701 -531 529 532 533 530 630 629 627 626 628 631 -536 538 537 613 610 609 612 611 608 491 489 490 595 597 596 593 594 598 -569 568 570 600 603 332 333 331 330 652 650 655 653 651 654 704 706 707 703 705 -572 573 571 142 141 145 144 143 392 391 390 389 663 668 665 667 664 -605 622 620 621 619 139 138 136 137 140 695 698 696 697 671 674 -625 623 624 118 117 119 115 116 657 656 661 660 0 





OBJ=
4372.225
BEST_KNOWN=
0.000